nServices=10;
nDrivers=10;
nBuses=10;
startingTime=[115 139 35 43 167 187 121 132 48 177];
durationTime=[15 23 23 23 28 22 13 13 19 18];
durationDist=[53 20 24 25 38 28 43 36 29 42];
passangers=[9 11 6 19 7 24 12 9 22 20];
capacity=[13 17 11 24 30 27 13 11 23 19];
costTime=[9 10 9 9 9 7 10 6 9 9];
costDist=[6 5 4 4 2 3 4 3 3 2];
maxTime=[20 44 36 28 21 20 41 59 47 58];
costBM=[7 7 6 5 7 6 6 8 6 6];
costEM=[12 12 10 8 9 9 10 11 9 12];
BM=[10 20 11 13 18 19 14 11 15 13];
